% demand
num_movements = 25;
loading_factor = [1350, 1700, 1550, 1000, 1400, 1250, 1250, 1350, 1550, 1400, 1300, 1000, 850, 1850, 1000, 2000, 1350, 1900, 1050, 1800, 1550, 1350, 950, 1250, 1350];
pickup_time = [0, 0, 0, 0, 0, 2, 2, 5, 5, 5, 5, 5, 6, 6, 6, 6, 8, 8, 8, 11, 11, 11, 12, 12, 12];
delivery_time = [2, 3, 2, 2, 5, 4, 3, 6, 6, 6, 6, 6, 13, 9, 7, 8, 11, 10, 13, 12, 13, 12, 13, 13, 13];

% transporter definition
total_capacity = 7000;
num_decks = 3;
capacity = [3000, 1000, 3000];

% ways out of decks
num_ways_out = 1;
paths_out = array3d(decks, ways_out, decks, [
% ways out of deck d1
2, 3, 0, 

% ways out of deck d2
3, 0, 0, 

% ways out of deck d3
0, 0, 0,	

]);

